ObjectiveValue = 4452.4;
flow=[(1,6,4)(5,0,0)(5,1,0)(5,2,0)(5,6,33)(5,8,0)(5,10,0)(5,11,0)(6,0,1)(6,2,1)(6,5,2)(6,11,44)(6,12,4)(9,5,1)(10,12,4)(11,5,2)(11,6,18)(11,8,4)(12,6,33)(12,7,5)(12,8,0)(12,9,0)(12,10,0)(12,11,0)];
